c random cnf
p cnf 50 50
13 -15 0
3 -39 0
17 44 0
-23 28 0
21 41 0
-2 6 0
21 -38 0
43 -45 0
15 -22 0
26 41 0
-4 -27 0
2 -3 0
19 22 0
36 47 0
-26 42 0
21 36 0
-16 22 0
8 -36 0
-24 45 0
-15 47 0
2 -5 0
3 10 0
-11 -31 0
-41 43 0
-17 -32 0
-4 -37 0
-6 13 0
29 44 0
19 -36 0
-16 -30 0
2 38 0
14 40 0
-21 -49 0
-16 -37 0
-35 49 0
22 -32 0
-12 -16 0
11 48 0
-8 -29 0
-28 33 0
1 -12 0
-20 -22 0
-26 -27 0
18 47 0
16 25 0
21 -27 0
23 36 0
-3 -8 0
-12 24 0
7 -47 0
